Log file: C:\Users\user\robust_bilevel_network_games\true_dro\log_sioux_falls_S20_20260416_1903393.txt
Started: 2026-04-16T19:03:18.407


======================================================================
INSTANCE: sioux_falls (S=20, ε̂=0.1, ε̃=0.1)
======================================================================
============================================================
Sioux-Falls Network Summary
============================================================
Number of nodes: 24
Number of arcs (incl. dummy): 77
Number of regular arcs: 76
Number of interdictable arcs: 66
Source node: s (1)
Sink node: t (24)
Node-incidence matrix N dimensions: (23, 77)

Sparsity Information:
  Arc-arc adjacency: 864 / 5776 pairs (85.0% sparse)
  Node-arc incidence: 148 / 1748 pairs (91.5% sparse)

First 15 arcs:
  Arc 1: ("10", "11") [Interdictable: ✓]
  Arc 2: ("10", "15") [Interdictable: ✓]
  Arc 3: ("10", "16") [Interdictable: ✓]
  Arc 4: ("10", "17") [Interdictable: ✓]
  Arc 5: ("10", "9") [Interdictable: ✓]
  Arc 6: ("11", "10") [Interdictable: ✓]
  Arc 7: ("11", "12") [Interdictable: ✓]
  Arc 8: ("11", "14") [Interdictable: ✓]
  Arc 9: ("11", "4") [Interdictable: ✓]
  Arc 10: ("12", "11") [Interdictable: ✓]
  Arc 11: ("12", "13") [Interdictable: ✓]
  Arc 12: ("12", "3") [Interdictable: ✓]
  Arc 13: ("13", "12") [Interdictable: ✓]
  Arc 14: ("13", "t") [Interdictable: ✗]
  Arc 15: ("14", "11") [Interdictable: ✓]
============================================================
  |A|=76, S=20, γ=2, w=1.9805, λU=2.0
  ε̂=0.1, ε̃=0.1

----------------------------------------
VI-only OMP diagnostic (no Benders cuts)
Set parameter Username
Set parameter LicenseID to value 2742039
Academic license - for non-commercial use only - expires 2026-11-20
Set parameter OutputFlag to value 1
Set parameter OutputFlag to value 1
Gurobi Optimizer version 13.0.0 build v13.0.0rc1 (win64 - Windows 10.0 (19045.2))

CPU model: AMD Ryzen 9 5900X 12-Core Processor, instruction set [SSE2|AVX|AVX2]
Thread count: 12 physical cores, 24 logical processors, using up to 24 threads

Optimize a model with 6112 rows, 3577 columns and 18067 nonzeros (Min)
Model fingerprint: 0x8ba74a64
Model has 1 linear objective coefficients
Variable types: 3501 continuous, 76 integer (76 binary)
Coefficient statistics:
  Matrix range     [2e-02, 1e+00]
  Objective range  [1e+00, 1e+00]
  Bounds range     [1e+00, 1e+04]
  RHS range        [1e+00, 2e+00]
Found heuristic solution: objective 75.8358076
Presolve removed 2271 rows and 553 columns
Presolve time: 0.02s
Presolved: 3841 rows, 3024 columns, 8984 nonzeros
Found heuristic solution: objective 55.7240525
Variable types: 2960 continuous, 64 integer (64 binary)

Root relaxation: objective 3.230065e+00, 1334 iterations, 0.01 seconds (0.03 work units)

    Nodes    |    Current Node    |     Objective Bounds      |     Work
 Expl Unexpl |  Obj  Depth IntInf | Incumbent    BestBd   Gap | It/Node Time

*    0     0               0       3.2300654    3.23007  0.00%     -    0s

Explored 1 nodes (1334 simplex iterations) in 0.04 seconds (0.05 work units)
Thread count was 24 (of 24 available processors)

Solution count 3: 3.23007 55.7241 75.8358 

Optimal solution found (tolerance 1.00e-04)
Best objective 3.230065405688e+00, best bound 3.230065405688e+00, gap 0.0000%

User-callback calls 54, time in user-callback 0.00 sec
  VI-only LB = 3.230065, x = [0, 0, 0, 0, 0, 0, 0, 0, 0, 0, 0, 0, 0, 0, 0, 0, 0, 0, 0, 0, 0, 0, 0, 0, 0, 0, 0, 0, 0, 0, 0, 0, 0, 0, 0, 0, 0, 0, 0, 0, 0, 0, 0, 0, 0, 0, 0, 0, 0, 0, 1, 1, 0, 0, 0, 0, 0, 0, 0, 0, 0, 0, 0, 0, 0, 0, 0, 0, 0, 0, 0, 0, 0, 0, 0, 0]
----------------------------------------

======================================================================
1. True-DRO Benders (bilinear subproblem via Gurobi NonConvex=2)
======================================================================
Set parameter Username
Set parameter LicenseID to value 2742039
Academic license - for non-commercial use only - expires 2026-11-20
Set parameter Username
Set parameter LicenseID to value 2742039
Academic license - for non-commercial use only - expires 2026-11-20
Set parameter DualReductions to value 0
Set parameter NonConvex to value 2
Set parameter LogFile to value "global_miqcp.log"
Set parameter Username
Set parameter LicenseID to value 2742039
Academic license - for non-commercial use only - expires 2026-11-20
Set parameter DualReductions to value 0
Set parameter NonConvex to value 2
Set parameter OptimalityTarget to value 1
Set parameter Username
Set parameter LicenseID to value 2742039
Academic license - for non-commercial use only - expires 2026-11-20
Set parameter Username
Set parameter LicenseID to value 2742039
Academic license - for non-commercial use only - expires 2026-11-20

=== True-DRO Benders iter 1 ===
  OMP: t₀=3.230065, UB=Inf, gap=NaN, x=[0, 0, 0, 0, 0, 0, 0, 0, 0, 0, 0, 0, 0, 0, 0, 0, 0, 0, 0, 0, 0, 0, 0, 0, 0, 0, 0, 0, 0, 0, 0, 0, 0, 0, 0, 0, 0, 0, 0, 0, 0, 0, 0, 0, 0, 0, 0, 0, 0, 0, 1, 1, 0, 0, 0, 0, 0, 0, 0, 0, 0, 0, 0, 0, 0, 0, 0, 0, 0, 0, 0, 0, 0, 0, 0, 0] (0.051s)
Set parameter TimeLimit to value 30
Set parameter MIPGap to value 0.0001
Set parameter MIPFocus to value 0
Set parameter NonConvex to value 2
Set parameter MIPGap to value 0.0001
Set parameter DualReductions to value 0
Set parameter OptimalityTarget to value 1
Set parameter MIPFocus to value 0
Set parameter TimeLimit to value 30
Gurobi Optimizer version 13.0.0 build v13.0.0rc1 (win64 - Windows 10.0 (19045.2))

CPU model: AMD Ryzen 9 5900X 12-Core Processor, instruction set [SSE2|AVX|AVX2]
Thread count: 12 physical cores, 24 logical processors, using up to 24 threads

Non-default parameters:
TimeLimit  30
OptimalityTarget  1
DualReductions  0
NonConvex  2

Optimize a model with 8778 rows, 17605 columns and 42593 nonzeros (Max)
Model fingerprint: 0x02ff7f35
Model has 3136 linear objective coefficients
Model has 3040 quadratic constraints
Coefficient statistics:
  Matrix range     [3e-01, 3e+01]
  QMatrix range    [1e+00, 1e+00]
  QLMatrix range   [1e+00, 1e+00]
  Objective range  [1e+00, 2e+00]
  Bounds range     [2e-01, 1e+01]
  RHS range        [5e-02, 2e+00]

Continuous model is non-convex -- solving with NL barrier

Presolve removed 3040 rows and 3040 columns
Presolve time: 0.02s
Presolved: 5738 rows, 14565 columns, 27393 nonzeros
Presolved model has 3040 quadratic constraint(s)
Ordering time: 0.01s

NL barrier statistics:
  Hessian NZ  : 3.040e+03
  Jacobian NZ : 4.259e+04
  Factor NZ   : 2.818e+05
  Factor Ops  : 6.918e+06
  Threads     : 1

                           Residuals
Iter     Objective      Primal     Dual      Compl     Step     Time
   0  -2.33434639e+04  1.16e+05  3.27e+03  4.89e+02  0.00e+00     0s
   1  -2.42985515e+04  8.30e+04  2.93e+03  4.46e+02  2.86e-01     0s
   2  -2.52477979e+04  5.72e+04  2.44e+03  3.85e+02  3.11e-01     0s
   3  -2.54792943e+04  5.18e+04  1.36e+03  1.93e+02  9.29e-02     0s
   4  -2.62758209e+04  3.34e+04  7.42e+02  9.79e+01  3.56e-01     0s
   5  -2.63294533e+04  1.29e+04  4.44e+02  5.92e+01  6.15e-01     0s
   6  -2.41661734e+04  3.46e+03  1.91e+02  2.47e+01  7.31e-01     0s
   7  -2.13840253e+04  1.93e+03  6.56e+01  8.99e+00  4.41e-01     0s
   8  -1.91412690e+04  1.41e+03  4.05e+01  5.97e+00  2.69e-01     0s
   9  -1.62365099e+04  8.59e+02  2.34e+01  3.89e+00  3.92e-01     0s
  10  -1.37599639e+04  4.64e+02  7.19e+00  1.94e+00  4.60e-01     0s
  11  -1.18588210e+04  2.06e+02  5.46e+00  1.67e+00  5.55e-01     0s
  12  -1.07882862e+04  6.62e+01  3.56e+00  1.42e+00  6.79e-01     0s
  13  -1.06404552e+04  4.76e+01  5.98e-02  1.02e+00  2.81e-01     0s
  14  -1.02741746e+04  1.04e-05  1.26e-03  1.00e+00  1.00e+00     0s
  15  -1.02718051e+04  1.65e-09  2.11e-05  1.00e+00  1.00e+00     0s
  16  -1.02717398e+04  7.58e-12  3.44e-08  1.00e+00  1.00e+00     0s
  17  -6.28131172e+03  2.64e-06  1.78e-03  4.51e-01  5.88e-01     0s
  18  -2.95685394e+03  9.50e-06  6.19e-03  3.25e-01  7.84e-01     0s
  19  -2.45835875e+03  6.93e-06  7.10e-03  1.73e-01  3.66e-01     0s
  20  -1.80820320e+03  2.23e-05  9.92e-03  1.56e-01  7.48e-01     0s
  21  -1.60351175e+03  1.68e-06  1.11e-04  1.50e-01  1.00e+00     0s
  22  -1.60389124e+03  8.70e-10  1.44e-07  1.50e-01  1.00e+00     0s
  23  -8.39071797e+02  1.90e-05  1.06e-02  7.06e-02  4.85e-01     0s
  24  -7.19012519e+02  2.56e-05  7.13e-02  5.24e-02  1.63e-01     0s
  25  -3.91708644e+02  8.23e-04  1.09e-01  3.92e-02  5.55e-01     0s
  26  -2.47336626e+02  3.71e-03  3.31e-01  3.06e-02  6.03e-01     0s
  27  -1.67686519e+02  6.17e-04  5.37e-02  2.25e-02  1.00e+00     0s
  28  -1.70965050e+02  1.57e-04  1.08e-03  2.25e-02  1.00e+00     0s
  29  -1.70958489e+02  5.43e-07  9.27e-06  2.25e-02  1.00e+00     0s
  30  -9.12433183e+01  1.21e-03  1.88e-01  1.52e-02  4.66e-01     0s
  31  -3.88440550e+01  1.01e-03  5.37e-02  6.46e-03  6.49e-01     0s
  32  -1.70079970e+01  3.83e-04  1.89e-02  3.38e-03  1.00e+00     0s
  33  -1.73337393e+01  3.34e-05  6.16e-04  3.38e-03  1.00e+00     0s
  34  -1.73277331e+01  4.98e-07  5.96e-06  3.38e-03  1.00e+00     0s
  35  -1.18576496e+00  9.27e-04  4.57e-02  1.70e-03  7.56e-01     0s
  36   9.83639117e-01  7.02e-04  1.05e-02  8.59e-04  4.22e-01     0s
  37   1.72215257e+00  6.21e-04  3.00e-02  4.06e-04  2.49e-01     0s
  38   2.43708912e+00  4.21e-04  8.69e-03  3.82e-04  3.49e-01     0s
  39   3.75044094e+00  5.65e-05  6.61e-05  3.46e-04  1.00e+00     0s
  40   3.74996504e+00  3.86e-10  1.24e-07  3.46e-04  1.00e+00     0s
  41   3.74998374e+00  1.32e-11  9.61e-11  3.46e-04  1.00e+00     0s
  42   5.30395698e+00  4.51e-05  1.17e-03  9.66e-05  6.97e-01     0s
  43   5.48602019e+00  3.60e-05  3.24e-03  3.79e-05  2.68e-01     0s
  44   5.83449260e+00  3.50e-05  9.41e-04  2.04e-05  7.06e-01     0s
  45   5.97452406e+00  1.19e-05  6.30e-03  1.62e-05  1.00e+00     0s
  46   5.97714893e+00  7.88e-06  5.54e-03  1.53e-05  3.35e-01     0s
  47   5.97766375e+00  4.27e-08  6.84e-03  1.53e-05  1.00e+00     0s
  48   5.97792761e+00  1.01e-08  2.03e-05  1.43e-05  1.00e+00     0s
  49   5.97802390e+00  7.38e-10  1.19e-07  1.43e-05  1.00e+00     0s
  50   6.05265484e+00  4.51e-06  2.66e-04  3.62e-06  7.79e-01     0s
  51   6.07555371e+00  1.75e-06  2.75e-04  3.06e-07  1.00e+00     0s
  52   6.07555016e+00  5.06e-11  3.25e-09  1.65e-07  1.00e+00     0s
  53   6.07670418e+00  2.73e-09  9.61e-08  1.05e-09  1.00e+00     1s
  54   6.07670442e+00  8.77e-14  5.46e-10  1.00e-09  1.00e+00     1s

NL barrier solved model in 54 iterations and 0.52 seconds (0.68 work units)
First-order optimal solution
Solution objective 6.076704419003e+00

User-callback calls 326, time in user-callback 0.00 sec
  Sub: Z₀=6.076704 [LOCAL], α=[0.000,0.000,0.000,0.000,0.000,0.000,0.000,0.000,0.000,0.000,0.000,0.000,0.000,0.000,0.000,0.000,0.000,0.000,0.000,0.000,0.000,0.000,0.000,0.000,0.000,0.000,0.000,0.000,0.000,0.000,0.000,0.000,0.000,0.000,0.000,0.000,0.000,0.000,0.000,0.000,0.000,0.000,0.000,0.000,0.000,0.000,0.000,0.000,0.000,0.000,1.100,0.880,0.000,0.000,0.000,0.000,0.000,0.000,0.000,0.000,0.000,0.000,0.000,0.000,0.000,0.000,0.000,0.000,0.000,0.000,0.000,0.000,0.000,0.000,0.000,0.000]
  Iter 1: LB=3.230065  UB=Inf  gap=NaN
  Cut: intercept=-604.519894, π_x_range=[-416.4688, 305.8772]
  [ρ-diag] φ̂U=1.00, φ̃U=2.00, λU=2.00
    π_L range=[-134.5817, 95.8772], |π_L|_∞=134.5817
    π_F range=[-268.5538, 194.8961], |π_F|_∞=268.5538
    π_ψ range=[-13.3333, 17.1799], |π_ψ|_∞=17.1799
    ρ̂1: [0.0000, 7.1113], ρ̂3: [0.0000, 5.0000]
    ρ̃1: [0.0000, 6.7976], ρ̃3: [0.0000, 4.9687]
    ρ⁰1: [0.0000, 6.6667], ρ⁰3: [0.0000, 8.5900]
  [φ-diag] φ̂ actual: [-0.0000, 1.0000], φ̂U=1.00
  [φ-diag] φ̃ actual: [0.0000, 2.0000], φ̃U=2.00
  Mini-Benders[1] (mw): LB=5.121018, Z₀(α*)=8.428648, intercept=1.064559
  Mini-Benders[2] (mw): LB=6.076704, Z₀(α*)=6.076711, intercept=0.223682
  Mini-Benders[3] (mw): LB=6.076710, Z₀(α*)=6.076711, intercept=0.223682
  Mini-Benders[4] (mw): LB=6.076710, Z₀(α*)=6.076711, intercept=0.223682
  Mini-Benders[5] (mw): LB=6.076710, Z₀(α*)=6.076711, intercept=0.223682
Set parameter NonConvex to value 2
Set parameter DualReductions to value 0
Set parameter LogFile to value "global_miqcp.log"
Gurobi Optimizer version 13.0.0 build v13.0.0rc1 (win64 - Windows 10.0 (19045.2))

CPU model: AMD Ryzen 9 5900X 12-Core Processor, instruction set [SSE2|AVX|AVX2]
Thread count: 12 physical cores, 24 logical processors, using up to 24 threads

Non-default parameters:
DualReductions  0
NonConvex  2

Optimize a model with 8778 rows, 17605 columns and 42593 nonzeros (Max)
Model fingerprint: 0xc87314d0
Model has 3136 linear objective coefficients
Model has 3040 quadratic constraints
Coefficient statistics:
  Matrix range     [3e-01, 3e+01]
  QMatrix range    [1e+00, 1e+00]
  QLMatrix range   [1e+00, 1e+00]
  Objective range  [1e+00, 2e+00]
  Bounds range     [5e-02, 2e+00]
  RHS range        [5e-02, 2e+00]
Presolve removed 102 rows and 344 columns
Presolve time: 0.01s
Presolved: 11412 rows, 17261 columns, 41841 nonzeros
Ordering time: 0.06s

Barrier statistics:
 Free vars  : 440
 AA' NZ     : 7.900e+04
 Factor NZ  : 4.794e+05 (roughly 15 MB of memory)
 Factor Ops : 4.608e+07 (less than 1 second per iteration)
 Threads    : 12

                  Objective                Residual
Iter       Primal          Dual         Primal    Dual     Compl     Time
   0  -2.13998392e+04 -0.00000000e+00  2.41e+03 1.00e+00  2.44e+01     0s
   1  -2.41147233e+04  9.00999148e+02  7.17e+02 5.59e+00  1.42e+01     0s
   2  -2.17531715e+04  1.29352490e+03  1.80e+02 1.33e+00  3.83e+00     0s
   3  -9.62781811e+03  1.01097339e+03  5.84e+00 2.90e-01  8.21e-01     0s
   4  -1.68410093e+03  7.59247624e+02  3.91e-01 8.39e-02  1.82e-01     0s
   5  -4.79078562e+02  3.16150222e+02  1.27e-01 1.15e-02  4.19e-02     0s
   6  -1.21777703e+02  1.25736184e+02  3.81e-02 2.56e-03  1.20e-02     0s
   7  -4.54037526e+01  4.79480564e+01  1.49e-02 6.03e-04  4.30e-03     0s
   8  -2.74697238e+00  1.17800002e+01  2.22e-03 3.61e-05  6.12e-04     0s
   9   5.86954281e+00  6.30951499e+00  3.43e-05 9.94e-07  1.84e-05     0s
  10   6.07554431e+00  6.07800669e+00  1.80e-08 2.45e-09  9.41e-08     0s
  11   6.07671143e+00  6.07671146e+00  4.80e-10 7.32e-13  6.07e-13     0s

Barrier solved model in 11 iterations and 0.14 seconds (0.11 work units)
Optimal objective 6.07671143e+00


User-callback calls 78, time in user-callback 0.00 sec
  α-step: Z₀=6.076711, α=[0.000,0.000,0.000,0.000,0.000,0.000,0.000,0.000,0.000,0.000,0.000,0.000,0.000,0.000,0.000,0.000,0.000,0.000,0.000,0.000,0.000,0.000,0.000,0.000,0.000,0.000,0.000,0.000,0.000,0.000,0.000,0.000,0.000,0.000,0.000,0.000,0.000,0.000,0.000,0.000,0.000,0.000,0.000,0.000,0.000,0.000,0.000,0.000,0.000,0.000,1.074,0.906,0.000,0.000,0.000,0.000,0.000,0.000,0.000,0.000,0.000,0.000,0.000,0.000,0.000,0.000,0.000,0.000,0.000,0.000,0.000,0.000,0.000,0.000,0.000,0.000]
  Alt-Benders[1] (mw): LB=6.076710, Z₀(α*)=6.076711, intercept=0.223683
  Alt-Benders[2] (mw): LB=6.076710, Z₀(α*)=6.076711, intercept=0.223683
  Alt-Benders[3] (mw): LB=6.076710, Z₀(α*)=6.076711, intercept=0.223683
  Alt-Benders[4]: LB stagnated, break
  OMP re-solve: 0.001s

=== True-DRO Benders iter 2 ===
  OMP: t₀=6.076710, UB=Inf, gap=NaN, x=[0, 0, 0, 0, 0, 0, 0, 0, 0, 0, 0, 0, 0, 0, 0, 0, 0, 0, 0, 0, 0, 0, 0, 0, 0, 0, 0, 0, 0, 0, 0, 0, 0, 0, 0, 0, 0, 0, 0, 0, 0, 0, 0, 0, 0, 0, 0, 0, 0, 0, 1, 1, 0, 0, 0, 0, 0, 0, 0, 0, 0, 0, 0, 0, 0, 0, 0, 0, 0, 0, 0, 0, 0, 0, 0, 0] (0.001s)
Set parameter TimeLimit to value 30
Set parameter MIPGap to value 0.0001
Set parameter MIPFocus to value 0
Gurobi Optimizer version 13.0.0 build v13.0.0rc1 (win64 - Windows 10.0 (19045.2))

CPU model: AMD Ryzen 9 5900X 12-Core Processor, instruction set [SSE2|AVX|AVX2]
Thread count: 12 physical cores, 24 logical processors, using up to 24 threads

Non-default parameters:
TimeLimit  30
OptimalityTarget  1
DualReductions  0
NonConvex  2

Optimize a model with 8778 rows, 17605 columns and 42593 nonzeros (Max)
Model fingerprint: 0x02ff7f35
Model has 3136 linear objective coefficients
Model has 3040 quadratic constraints
Variable types: 17605 continuous, 0 integer (0 binary)
Coefficient statistics:
  Matrix range     [3e-01, 3e+01]
  QMatrix range    [1e+00, 1e+00]
  QLMatrix range   [1e+00, 1e+00]
  Objective range  [1e+00, 2e+00]
  Bounds range     [2e-01, 1e+01]
  RHS range        [5e-02, 2e+00]
Presolve removed 3040 rows and 3040 columns
Presolve time: 0.02s
Presolved: 5738 rows, 14565 columns, 27393 nonzeros
Presolved model has 3040 quadratic constraint(s)

Solving NLP to local optimality

Ordering time: 0.01s

NL barrier statistics:
  Hessian NZ  : 3.040e+03
  Jacobian NZ : 4.259e+04
  Factor NZ   : 2.818e+05
  Factor Ops  : 6.918e+06
  Threads     : 1

                           Residuals
Iter     Objective      Primal     Dual      Compl     Step     Time
   0  -2.33434639e+04  1.16e+05  3.27e+03  4.89e+02  0.00e+00     0s
   1  -2.42985515e+04  8.30e+04  2.93e+03  4.46e+02  2.86e-01     0s
   2  -2.52477979e+04  5.72e+04  2.44e+03  3.85e+02  3.11e-01     0s
   3  -2.54792943e+04  5.18e+04  1.36e+03  1.93e+02  9.29e-02     0s
   4  -2.62758209e+04  3.34e+04  7.42e+02  9.79e+01  3.56e-01     0s
   5  -2.63294533e+04  1.29e+04  4.44e+02  5.92e+01  6.15e-01     0s
   6  -2.41661734e+04  3.46e+03  1.91e+02  2.47e+01  7.31e-01     0s
   7  -2.13840253e+04  1.93e+03  6.56e+01  8.99e+00  4.41e-01     0s
   8  -1.91412690e+04  1.41e+03  4.05e+01  5.97e+00  2.69e-01     0s
   9  -1.62365099e+04  8.59e+02  2.34e+01  3.89e+00  3.92e-01     0s
  10  -1.37599639e+04  4.64e+02  7.19e+00  1.94e+00  4.60e-01     0s
  11  -1.18588210e+04  2.06e+02  5.46e+00  1.67e+00  5.55e-01     0s
  12  -1.07882862e+04  6.62e+01  3.56e+00  1.42e+00  6.79e-01     0s
  13  -1.06404552e+04  4.76e+01  5.98e-02  1.02e+00  2.81e-01     0s
  14  -1.02741746e+04  1.04e-05  1.26e-03  1.00e+00  1.00e+00     0s
  15  -1.02718051e+04  1.65e-09  2.11e-05  1.00e+00  1.00e+00     0s
  16  -1.02717398e+04  7.58e-12  3.44e-08  1.00e+00  1.00e+00     0s
  17  -6.28131172e+03  2.64e-06  1.78e-03  4.51e-01  5.88e-01     0s
  18  -2.95685394e+03  9.50e-06  6.19e-03  3.25e-01  7.84e-01     0s
  19  -2.45835875e+03  6.93e-06  7.10e-03  1.73e-01  3.66e-01     0s
  20  -1.80820320e+03  2.23e-05  9.92e-03  1.56e-01  7.48e-01     0s
  21  -1.60351175e+03  1.68e-06  1.11e-04  1.50e-01  1.00e+00     0s
  22  -1.60389124e+03  8.70e-10  1.44e-07  1.50e-01  1.00e+00     0s
  23  -8.39071797e+02  1.90e-05  1.06e-02  7.06e-02  4.85e-01     0s
  24  -7.19012519e+02  2.56e-05  7.13e-02  5.24e-02  1.63e-01     0s
  25  -3.91708644e+02  8.23e-04  1.09e-01  3.92e-02  5.55e-01     0s
  26  -2.47336626e+02  3.71e-03  3.31e-01  3.06e-02  6.03e-01     0s
  27  -1.67686519e+02  6.17e-04  5.37e-02  2.25e-02  1.00e+00     0s
  28  -1.70965050e+02  1.57e-04  1.08e-03  2.25e-02  1.00e+00     0s
  29  -1.70958489e+02  5.43e-07  9.27e-06  2.25e-02  1.00e+00     0s
  30  -9.12433183e+01  1.21e-03  1.88e-01  1.52e-02  4.66e-01     0s
  31  -3.88440550e+01  1.01e-03  5.37e-02  6.46e-03  6.49e-01     0s
  32  -1.70079970e+01  3.83e-04  1.89e-02  3.38e-03  1.00e+00     0s
  33  -1.73337393e+01  3.34e-05  6.16e-04  3.38e-03  1.00e+00     0s
  34  -1.73277331e+01  4.98e-07  5.96e-06  3.38e-03  1.00e+00     0s
  35  -1.18576496e+00  9.27e-04  4.57e-02  1.70e-03  7.56e-01     0s
  36   9.83639117e-01  7.02e-04  1.05e-02  8.59e-04  4.22e-01     0s
  37   1.72215257e+00  6.21e-04  3.00e-02  4.06e-04  2.49e-01     0s
  38   2.43708912e+00  4.21e-04  8.69e-03  3.82e-04  3.49e-01     0s
  39   3.75044094e+00  5.65e-05  6.61e-05  3.46e-04  1.00e+00     0s
  40   3.74996504e+00  3.86e-10  1.24e-07  3.46e-04  1.00e+00     0s
  41   3.74998374e+00  1.32e-11  9.61e-11  3.46e-04  1.00e+00     0s
  42   5.30395698e+00  4.51e-05  1.17e-03  9.66e-05  6.97e-01     0s
  43   5.48602019e+00  3.60e-05  3.24e-03  3.79e-05  2.68e-01     0s
  44   5.83449260e+00  3.50e-05  9.41e-04  2.04e-05  7.06e-01     0s
  45   5.97452406e+00  1.19e-05  6.30e-03  1.62e-05  1.00e+00     0s
  46   5.97714893e+00  7.88e-06  5.54e-03  1.53e-05  3.35e-01     0s
  47   5.97766375e+00  4.27e-08  6.84e-03  1.53e-05  1.00e+00     0s
  48   5.97792761e+00  1.01e-08  2.03e-05  1.43e-05  1.00e+00     0s
  49   5.97802390e+00  7.38e-10  1.19e-07  1.43e-05  1.00e+00     0s
  50   6.05265484e+00  4.51e-06  2.66e-04  3.62e-06  7.79e-01     0s
  51   6.07555371e+00  1.75e-06  2.75e-04  3.06e-07  1.00e+00     0s
  52   6.07555016e+00  5.06e-11  3.25e-09  1.65e-07  1.00e+00     0s
  53   6.07670418e+00  2.73e-09  9.61e-08  1.05e-09  1.00e+00     0s
  54   6.07670442e+00  8.77e-14  5.46e-10  1.00e-09  1.00e+00     1s

NL barrier solved model in 54 iterations and 0.52 seconds (0.67 work units)
First-order optimal solution
Solution objective 6.076704419003e+00

User-callback calls 328, time in user-callback 0.00 sec
  Sub: Z₀=6.076704 [LOCAL], α=[0.000,0.000,0.000,0.000,0.000,0.000,0.000,0.000,0.000,0.000,0.000,0.000,0.000,0.000,0.000,0.000,0.000,0.000,0.000,0.000,0.000,0.000,0.000,0.000,0.000,0.000,0.000,0.000,0.000,0.000,0.000,0.000,0.000,0.000,0.000,0.000,0.000,0.000,0.000,0.000,0.000,0.000,0.000,0.000,0.000,0.000,0.000,0.000,0.000,0.000,1.100,0.880,0.000,0.000,0.000,0.000,0.000,0.000,0.000,0.000,0.000,0.000,0.000,0.000,0.000,0.000,0.000,0.000,0.000,0.000,0.000,0.000,0.000,0.000,0.000,0.000]
  Iter 2: LB=6.076710  UB=Inf  gap=NaN
  Cut: intercept=-604.519894, π_x_range=[-416.4688, 305.8772]
  [ρ-diag] φ̂U=1.00, φ̃U=2.00, λU=2.00
    π_L range=[-134.5817, 95.8772], |π_L|_∞=134.5817
    π_F range=[-268.5538, 194.8961], |π_F|_∞=268.5538
    π_ψ range=[-13.3333, 17.1799], |π_ψ|_∞=17.1799
    ρ̂1: [0.0000, 7.1113], ρ̂3: [0.0000, 5.0000]
    ρ̃1: [0.0000, 6.7976], ρ̃3: [0.0000, 4.9687]
    ρ⁰1: [0.0000, 6.6667], ρ⁰3: [0.0000, 8.5900]
  [φ-diag] φ̂ actual: [0.0000, 1.0000], φ̂U=1.00
  [φ-diag] φ̃ actual: [-0.0000, 0.0000], φ̃U=2.00
  Mini-Benders[1] (mw): LB=6.076710, Z₀(α*)=6.076711, intercept=0.223682
  Mini-Benders[2] (mw): LB=6.076710, Z₀(α*)=6.076711, intercept=0.223682
  Mini-Benders[3]: LB stagnated, break
Gurobi Optimizer version 13.0.0 build v13.0.0rc1 (win64 - Windows 10.0 (19045.2))

CPU model: AMD Ryzen 9 5900X 12-Core Processor, instruction set [SSE2|AVX|AVX2]
Thread count: 12 physical cores, 24 logical processors, using up to 24 threads

Non-default parameters:
DualReductions  0
NonConvex  2

Optimize a model with 8778 rows, 17605 columns and 42593 nonzeros (Max)
Model fingerprint: 0xc87314d0
Model has 3136 linear objective coefficients
Model has 3040 quadratic constraints
Coefficient statistics:
  Matrix range     [3e-01, 3e+01]
  QMatrix range    [1e+00, 1e+00]
  QLMatrix range   [1e+00, 1e+00]
  Objective range  [1e+00, 2e+00]
  Bounds range     [5e-02, 2e+00]
  RHS range        [5e-02, 2e+00]
Presolve removed 102 rows and 344 columns
Presolve time: 0.01s
Presolved: 11412 rows, 17261 columns, 41841 nonzeros
Ordering time: 0.05s

Barrier statistics:
 Free vars  : 440
 AA' NZ     : 7.900e+04
 Factor NZ  : 4.794e+05 (roughly 15 MB of memory)
 Factor Ops : 4.608e+07 (less than 1 second per iteration)
 Threads    : 12

                  Objective                Residual
Iter       Primal          Dual         Primal    Dual     Compl     Time
   0  -2.13998392e+04 -0.00000000e+00  2.41e+03 1.00e+00  2.44e+01     0s
   1  -2.41147233e+04  9.00999148e+02  7.17e+02 5.59e+00  1.42e+01     0s
   2  -2.17531715e+04  1.29352490e+03  1.80e+02 1.33e+00  3.83e+00     0s
   3  -9.62781811e+03  1.01097339e+03  5.84e+00 2.90e-01  8.21e-01     0s
   4  -1.68410093e+03  7.59247624e+02  3.91e-01 8.39e-02  1.82e-01     0s
   5  -4.79078562e+02  3.16150222e+02  1.27e-01 1.15e-02  4.19e-02     0s
   6  -1.21777703e+02  1.25736184e+02  3.81e-02 2.56e-03  1.20e-02     0s
   7  -4.54037526e+01  4.79480564e+01  1.49e-02 6.03e-04  4.30e-03     0s
   8  -2.74697238e+00  1.17800002e+01  2.22e-03 3.61e-05  6.12e-04     0s
   9   5.86954281e+00  6.30951499e+00  3.43e-05 9.94e-07  1.84e-05     0s
  10   6.07554431e+00  6.07800669e+00  1.80e-08 2.45e-09  9.41e-08     0s
  11   6.07671143e+00  6.07671146e+00  4.80e-10 7.32e-13  6.07e-13     0s

Barrier solved model in 11 iterations and 0.13 seconds (0.11 work units)
Optimal objective 6.07671143e+00


User-callback calls 74, time in user-callback 0.00 sec
  α-step: Z₀=6.076711, α=[0.000,0.000,0.000,0.000,0.000,0.000,0.000,0.000,0.000,0.000,0.000,0.000,0.000,0.000,0.000,0.000,0.000,0.000,0.000,0.000,0.000,0.000,0.000,0.000,0.000,0.000,0.000,0.000,0.000,0.000,0.000,0.000,0.000,0.000,0.000,0.000,0.000,0.000,0.000,0.000,0.000,0.000,0.000,0.000,0.000,0.000,0.000,0.000,0.000,0.000,1.074,0.906,0.000,0.000,0.000,0.000,0.000,0.000,0.000,0.000,0.000,0.000,0.000,0.000,0.000,0.000,0.000,0.000,0.000,0.000,0.000,0.000,0.000,0.000,0.000,0.000]
  Alt-Benders[1] (mw): LB=6.076710, Z₀(α*)=6.076711, intercept=0.223683
  Alt-Benders[2] (mw): LB=6.076710, Z₀(α*)=6.076711, intercept=0.223683
  Alt-Benders[3]: LB stagnated, break
  OMP re-solve: 0.001s

=== True-DRO Benders iter 3 ===
  OMP: t₀=6.076710, UB=Inf, gap=NaN, x=[0, 0, 0, 0, 0, 0, 0, 0, 0, 0, 0, 0, 0, 0, 0, 0, 0, 0, 0, 0, 0, 0, 0, 0, 0, 0, 0, 0, 0, 0, 0, 0, 0, 0, 0, 0, 0, 0, 0, 0, 0, 0, 0, 0, 0, 0, 0, 0, 0, 0, 1, 1, 0, 0, 0, 0, 0, 0, 0, 0, 0, 0, 0, 0, 0, 0, 0, 0, 0, 0, 0, 0, 0, 0, 0, 0] (0.001s)
Set parameter TimeLimit to value 30
Set parameter MIPGap to value 0.0001
Set parameter MIPFocus to value 0
Gurobi Optimizer version 13.0.0 build v13.0.0rc1 (win64 - Windows 10.0 (19045.2))

CPU model: AMD Ryzen 9 5900X 12-Core Processor, instruction set [SSE2|AVX|AVX2]
Thread count: 12 physical cores, 24 logical processors, using up to 24 threads

Non-default parameters:
TimeLimit  30
DualReductions  0
NonConvex  2

Optimize a model with 8778 rows, 17605 columns and 42593 nonzeros (Max)
Model fingerprint: 0x09c6a351
Model has 3136 linear objective coefficients
Model has 3040 quadratic constraints
Coefficient statistics:
  Matrix range     [3e-01, 3e+01]
  QMatrix range    [1e+00, 1e+00]
  QLMatrix range   [1e+00, 1e+00]
  Objective range  [1e+00, 2e+00]
  Bounds range     [2e-01, 2e+00]
  RHS range        [5e-02, 2e+00]

Continuous model is non-convex -- solving as a MIP

Presolve time: 0.02s
Presolved: 20938 rows, 17606 columns, 66913 nonzeros
Presolved model has 3040 bilinear constraint(s)
Variable types: 17606 continuous, 0 integer (0 binary)
Found heuristic solution: objective 6.0767049

Root relaxation: objective 9.748053e+00, 6976 iterations, 0.17 seconds (0.31 work units)

    Nodes    |    Current Node    |     Objective Bounds      |     Work
 Expl Unexpl |  Obj  Depth IntInf | Incumbent    BestBd   Gap | It/Node Time

     0     0    9.74805    0  180    6.07670    9.74805  60.4%     -    0s
     0     0          -    0         6.07670    6.07671  0.00%     -    0s

Cutting planes:
  RLT: 76

Explored 1 nodes (7826 simplex iterations) in 0.93 seconds (1.18 work units)
Thread count was 24 (of 24 available processors)

Solution count 1: 6.0767 

Optimal solution found (tolerance 1.00e-04)
Best objective 6.076704867994e+00, best bound 6.076711456990e+00, gap 0.0001%

User-callback calls 141, time in user-callback 0.00 sec
  Sub: Z₀=6.076705, α=[0.000,0.000,0.000,0.000,0.000,0.000,0.000,0.000,0.000,0.000,0.000,0.000,0.000,0.000,0.000,0.000,0.000,0.000,0.000,0.000,0.000,0.000,0.000,0.000,0.000,0.000,0.000,0.000,0.000,0.000,0.000,0.000,0.000,0.000,0.000,0.000,0.000,0.000,0.000,0.000,0.000,0.000,0.000,0.000,0.000,0.000,0.000,0.000,0.000,0.000,1.177,0.803,0.000,0.000,0.000,0.000,0.000,0.000,0.000,0.000,0.000,0.000,0.000,0.000,0.000,0.000,0.000,0.000,0.000,0.000,0.000,0.000,0.000,0.000,0.000,0.000]
  Iter 3: LB=6.076710  UB=6.076705  gap=9.10e-07
True-DRO Benders converged at iter 3 (gap=9.10e-07)
  Wall time: 7.95 sec
  OMP  time: mean=0.151s, median=0.201s, max=0.213s
  Sub  time (exact): mean=0.964s, median=0.964s, q90=0.964s, max=0.964s (n=1/3)

----------------------------------------
True-DRO: status=Optimal, Z₀=6.076705, iters=3, time=7.95s
  LB=6.076710, UB=6.076705, gap=9.10e-07
  x* = [0, 0, 0, 0, 0, 0, 0, 0, 0, 0, 0, 0, 0, 0, 0, 0, 0, 0, 0, 0, 0, 0, 0, 0, 0, 0, 0, 0, 0, 0, 0, 0, 0, 0, 0, 0, 0, 0, 0, 0, 0, 0, 0, 0, 0, 0, 0, 0, 0, 0, 1, 1, 0, 0, 0, 0, 0, 0, 0, 0, 0, 0, 0, 0, 0, 0, 0, 0, 0, 0, 0, 0, 0, 0, 0, 0]
  α* = [0.000, 0.000, 0.000, 0.000, 0.000, 0.000, 0.000, 0.000, 0.000, 0.000, 0.000, 0.000, 0.000, 0.000, 0.000, 0.000, 0.000, 0.000, 0.000, 0.000, 0.000, 0.000, 0.000, 0.000, 0.000, 0.000, 0.000, 0.000, 0.000, 0.000, 0.000, 0.000, 0.000, 0.000, 0.000, 0.000, 0.000, 0.000, 0.000, 0.000, 0.000, 0.000, 0.000, 0.000, 0.000, 0.000, 0.000, 0.000, 0.000, 0.000, 1.177, 0.803, 0.000, 0.000, 0.000, 0.000, 0.000, 0.000, 0.000, 0.000, 0.000, 0.000, 0.000, 0.000, 0.000, 0.000, 0.000, 0.000, 0.000, 0.000, 0.000, 0.000, 0.000, 0.000, 0.000, 0.000]
  Profile saved → C:\Users\user\robust_bilevel_network_games\true_dro\profiles.jls (19 entries)
============================================================
Primal Recovery: x* → α* → (h*, λ*, ψ⁰*)
============================================================
  x* = [0, 0, 0, 0, 0, 0, 0, 0, 0, 0, 0, 0, 0, 0, 0, 0, 0, 0, 0, 0, 0, 0, 0, 0, 0, 0, 0, 0, 0, 0, 0, 0, 0, 0, 0, 0, 0, 0, 0, 0, 0, 0, 0, 0, 0, 0, 0, 0, 0, 0, 1, 1, 0, 0, 0, 0, 0, 0, 0, 0, 0, 0, 0, 0, 0, 0, 0, 0, 0, 0, 0, 0, 0, 0, 0, 0]
  α* = [0.0000, 0.0000, 0.0000, 0.0000, 0.0000, 0.0000, 0.0000, 0.0000, 0.0000, 0.0000, 0.0000, 0.0000, 0.0000, 0.0000, 0.0000, 0.0000, 0.0000, 0.0000, 0.0000, 0.0000, 0.0000, 0.0000, 0.0000, 0.0000, 0.0000, 0.0000, 0.0000, 0.0000, 0.0000, 0.0000, 0.0000, 0.0000, 0.0000, 0.0000, 0.0000, 0.0000, 0.0000, 0.0000, 0.0000, 0.0000, 0.0000, 0.0000, 0.0000, 0.0000, 0.0000, 0.0000, 0.0000, 0.0000, 0.0000, 0.0000, 1.1773, 0.8032, 0.0000, 0.0000, 0.0000, 0.0000, 0.0000, 0.0000, 0.0000, 0.0000, 0.0000, 0.0000, 0.0000, 0.0000, 0.0000, 0.0000, 0.0000, 0.0000, 0.0000, 0.0000, 0.0000, 0.0000, 0.0000, 0.0000, 0.0000, 0.0000]

  Piece-F obj = 0.000000
  λ*   = -0.000000
  Σh*  = 0.000000  (budget: λw = -0.000000)

  h* (nonzero arcs):
  ψ⁰* (nonzero arcs):

  Per-scenario sink flow ỹ_ts:
    s=1: ỹ_ts=-0.000000
    s=2: ỹ_ts=-0.000000
    s=3: ỹ_ts=-0.000000
    s=4: ỹ_ts=-0.000000
    s=5: ỹ_ts=-0.000000
    s=6: ỹ_ts=-0.000000
    s=7: ỹ_ts=-0.000000
    s=8: ỹ_ts=-0.000000
    s=9: ỹ_ts=-0.000000
    s=10: ỹ_ts=-0.000000
    s=11: ỹ_ts=-0.000000
    s=12: ỹ_ts=-0.000000
    s=13: ỹ_ts=-0.000000
    s=14: ỹ_ts=-0.000000
    s=15: ỹ_ts=-0.000000
    s=16: ỹ_ts=-0.000000
    s=17: ỹ_ts=-0.000000
    s=18: ỹ_ts=-0.000000
    s=19: ỹ_ts=-0.000000
    s=20: ỹ_ts=-0.000000

  Z₀(Benders) = 6.076705
  Piece-F(recovered) = 0.000000

Finished: 2026-04-16T19:03:27.021
